************************************************************************
file with basedata            : n/a
initial value random generator: n/a
************************************************************************
projects                      :  1
jobs (incl. supersource/sink ):  32
horizon                       :  152
RESOURCES
  - renewable                 :  4   R
  - nonrenewable              :  0   N
  - doubly constrained        :  0   D
************************************************************************
PROJECT INFORMATION:
pronr.  #jobs rel.date duedate tardcost  MPM-Time
    1     30      0       49        7       49
************************************************************************
PRECEDENCE RELATIONS:
jobnr.    #modes  #successors   successors
   1        1          3           2   3   4
   2        1          2           5   9
   3        1          3           6   7   8
   4        1          3          10  23  28
   5        1          3          14  16  20
   6        1          1          17
   7        1          1          11
   8        1          1          31
   9        1          3          12  13  18
  10        1          2          16  29
  11        1          2          18  22
  12        1          1          19
  13        1          2          15  27
  14        1          1          31
  15        1          1          25
  16        1          3          19  21  24
  17        1          1          20
  18        1          1          25
  19        1          1          27
  20        1          1          30
  21        1          1          26
  22        1          2          25  29
  23        1          1          26
  24        1          1          30
  25        1          1          30
  26        1          1          27
  27        1          1          31
  28        1          1          29
  29        1          1          32
  30        1          1          32
  31        1          1          32
  32        1          0        
************************************************************************
REQUESTS/DURATIONS:
jobnr. mode duration  R 1  R 2  R 3  R 4
------------------------------------------------------------------------
  1      1     0    
  2      1     2       0   0
                       1   1
                       8   8
                       0   0
  3      1     2       4   4
                       0   0
                       0   0
                       4   4
  4      1    10       0   0   0   0   0   0   0   0   0   0
                       8   8   8   8   8   8   8   8   8   0
                       0   0   0   0   0   0   0   0   0   0
                       6   6   6   6   6   6   6   6   6   0
  5      1     6       3   3   3   3   3   3
                       0   0   0   0   0   0
                       5   5   5   5   5   5
                      10  10  10  10  10  10
  6      1     5       8   8   8   8   8
                       0   0   0   0   0
                       6   6   6   6   6
                       8   8   8   8   8
  7      1     5       6   6   6   6   6
                       6   6   6   6   6
                       7   7   7   7   7
                       0   0   0   0   0
  8      1     8       4   4   4   4   4   4   4   4
                       5   5   5   5   5   5   5   5
                       5   5   5   5   5   5   5   5
                       1   1   1   1   1   1   1   1
  9      1     5       5   5   5   5   5
                       0   0   0   0   0
                       4   4   4   4   4
                       0   0   0   0   0
 10      1    10       8   0   8   8   8   8   8   8   8   8
                       6   0   6   6   6   6   6   6   6   6
                       6   0   6   6   6   6   6   6   6   6
                       9   0   9   9   9   9   9   9   9   9
 11      1     3       6   6   6
                       0   0   0
                      10  10  10
                       0   0   0
 12      1     8       1   1   1   1   1   0   1   1
                       6   6   6   6   6   0   6   6
                       8   8   8   8   8   0   8   8
                       1   1   1   1   1   0   1   1
 13      1     3       0   0   0
                      10  10  10
                       2   2   2
                       9   9   9
 14      1     9       4   4   4   4   4   4   4   4   4
                       0   0   0   0   0   0   0   0   0
                       3   3   3   3   3   3   3   3   3
                       6   6   6   6   6   6   6   6   6
 15      1     1       2
                       9
                       2
                       2
 16      1     1       6
                       9
                       1
                       7
 17      1     1       9
                       8
                       5
                       0
 18      1     3       1   1   1
                       1   1   1
                       0   0   0
                       6   6   6
 19      1     2       1   1
                       1   1
                       5   5
                       0   0
 20      1     6       7   7   7   7   7   7
                       4   4   4   4   4   4
                       6   6   6   6   6   6
                       6   6   6   6   6   6
 21      1    10       0   0   0   0   0   0   0   0   0   0
                       9   9   9   9   9   9   9   9   9   9
                       2   2   2   2   2   2   2   2   2   2
                       7   7   7   7   7   7   7   7   7   7
 22      1    10       6   6   6   6   6   6   6   6   6   0
                       5   5   5   5   5   5   5   5   5   0
                       8   8   8   8   8   8   8   8   8   0
                       9   9   9   9   9   9   9   9   9   0
 23      1     2       0   0
                       0   0
                       5   5
                       8   8
 24      1     7       0   0   0   0   0   0   0
                       3   3   3   0   3   3   3
                       2   2   2   0   2   2   2
                       0   0   0   0   0   0   0
 25      1     3       3   3   3
                       0   0   0
                       0   0   0
                      10  10  10
 26      1     9      10   0   0  10  10  10  10  10  10
                       8   0   0   8   8   8   8   8   8
                       6   0   0   6   6   6   6   6   6
                       0   0   0   0   0   0   0   0   0
 27      1     3       0   0   0
                       8   8   8
                       9   9   9
                       2   2   2
 28      1     2       5   5
                       7   7
                       8   8
                       0   0
 29      1     4       8   8   8   8
                       8   8   8   8
                      10  10  10  10
                       3   3   3   3
 30      1     6       3   3   3   3   3   3
                       5   5   5   5   5   5
                       4   4   4   4   4   4
                      10  10  10  10  10  10
 31      1     6       6   6   6   6   6   6
                       4   4   4   4   4   4
                       9   9   9   9   9   9
                       0   0   0   0   0   0
 32      1     0    
************************************************************************
RESOURCEAVAILABILITIES:
  R 1  R 2  R 3  R 4

  22  22  22  22  22  22  22  22  22  22  22  22  22  22  22  22  22  22  22  22  22  22  22  22  22  22  22  22  22  22   0  22  22  22  22  22  22  22  22  22  22  22   0  22  22  22  22  22  22  22  22  22  22  22  22  22   0  22  22  22  22  22  22  22  22  22  22  22  22  22  22  22  22  22  22  22  22  22  22  22  22  22  22  22  22  22  22  22  22  22  22  22  22  22  22  22  22  22  22  22  22  22  22  22  22  22  22  22  22  22  22  22  22  22  22  22  22  22  22  22  22  22  22  22  22  22  22  22  22  22  22  22  22  22  22  22   0  22  22  22  22  22  22  22  22  22  22  22  22  22  22  22

  24  24  24  24  24  24  24  24  24  24  24  24  24  24  24  24  24  24  24  24  24  24  24  24  24  24  24  24  24  24   0  24  24  24  24  24  24  24  24  24  24  24   0  24  24  24  24  24  24  24  24  24  24  24  24  24   0  24  24  24  24  24  24  24  24  24  24  24  24  24  24  24  24  24  24  24  24  24  24  24  24  24  24  24  24  24  24  24  24  24  24  24  24  24  24  24  24  24  24  24  24  24  24  24  24  24  24  24  24  24  24  24  24  24  24  24  24  24  24  24  24  24  24  24  24  24  24  24  24  24  24  24  24  24  24  24   0  24  24  24  24  24  24  24  24  24  24  24  24  24  24  24

  28  28  28  28  28  28  28  28  28  28  28  28  28  28  28  28  28  28  28  28  28  28  28  28  28  28  28  28  28  28   0  28  28  28  28  28  28  28  28  28  28  28   0  28  28  28  28  28  28  28  28  28  28  28  28  28   0  28  28  28  28  28  28  28  28  28  28  28  28  28  28  28  28  28  28  28  28  28  28  28  28  28  28  28  28  28  28  28  28  28  28  28  28  28  28  28  28  28  28  28  28  28  28  28  28  28  28  28  28  28  28  28  28  28  28  28  28  28  28  28  28  28  28  28  28  28  28  28  28  28  28  28  28  28  28  28   0  28  28  28  28  28  28  28  28  28  28  28  28  28  28  28

  29  29  29  29  29  29  29  29  29  29  29  29  29  29  29  29  29  29  29  29  29  29  29  29  29  29  29  29  29  29   0  29  29  29  29  29  29  29  29  29  29  29   0  29  29  29  29  29  29  29  29  29  29  29  29  29   0  29  29  29  29  29  29  29  29  29  29  29  29  29  29  29  29  29  29  29  29  29  29  29  29  29  29  29  29  29  29  29  29  29  29  29  29  29  29  29  29  29  29  29  29  29  29  29  29  29  29  29  29  29  29  29  29  29  29  29  29  29  29  29  29  29  29  29  29  29  29  29  29  29  29  29  29  29  29  29   0  29  29  29  29  29  29  29  29  29  29  29  29  29  29  29

************************************************************************
